set Fert := T1, T2, T3, T4;

param:          Rep_conf        Rep_prod        Prof:=

T1              0.5             2               250
T2              0.25            1.5             230
T3              0.25            0.5             110
T4              1               2.5             350;


